sat
(:max-memory         18.06
 :memory             17.94
 :nlsat-propagations 9
 :nlsat-stages       4
 :num-allocs         5504
 :rlimit-count       1584
 :time               0.00
 :total-time         0.01)
